c
c start with comments
c
p cnf 23 33
3 -19 -19 0
3 -17 -13 -1 0
-10 -22 0
19 -9 0
-16 -19 -8 18 0
-15 -9 2 -20 21 0
-17 10 -13 0
-13 23 -9 -6 20 0
6 15 -8 0
-13 -15 19 10 0
-13 -23 21 0
-14 17 -2 17 0
10 6 0
12 21 -2 0
10 7 0
10 15 -1 -21 9 0
-20 21 0
-16 -5 -12 0
20 -14 -2 20 0
10 23 16 -3 6 0
2 -11 -21 0
14 10 10 14 2 0
21 7 14 0
-3 -6 8 -2 18 0
23 -17 4 18 -4 0
1 -8 -2 0
-20 -6 21 -8 7 0
6 -7 -13 1 -16 0
20 -17 11 -12 0
-14 -10 -15 0
-8 17 -10 0
-5 -2 7 -6 0
21 20 10 -16 -9 -12 0